pymatgen with grid density = 145 / number of atoms
0
Gamma
2 2 3
