Co3 Sn3
1.0
   2.6462088687593379   -4.5833682081305369   -0.0000000000000000
   2.6462088687593379    4.5833682081305369    0.0000000000000000
  -0.0000000000000000    0.0000000000000000    4.2374359894171185
Co Sn
3 3
direct
   0.0000000000000000    0.5000000000000000    0.0000000000000000 Co
   0.5000000000000000    0.5000000000000000    0.0000000000000000 Co
   0.5000000000000000    0.0000000000000000    0.0000000000000000 Co
   0.6666666666666643    0.3333333333333357    0.5000000000000000 Sn
   0.3333333333333357    0.6666666666666643    0.5000000000000000 Sn
   0.0000000000000000    0.0000000000000000    0.0000000000000000 Sn
